### Número 1

c veja essa coisa e me diga o resultado
p cnf 3 3
-1 -2 0
1 -2 0
-1 -3 0


### Número 2

p cnf 4 5
1 -2 0
-1 3 0
-2 4 0
-3 -4 0
1 4 0


### Número 3

p cnf 3 3
1 2 0
-1 -2 0
1 -3 0


### Número 4

c fórmula contraditória
p cnf 2 4
1 0
-1 0
2 0
-2 0
